NAME: Pferdchen
TYPE: TSP
COMMENT: Brahmilein ist auch dabei
DIMENSION: 229
EDGE_WEIGHT_TYPE: EUC_2D
NODE_COORD_SECTION
1 221.0 177.0
2 225.0 166.0
3 232.0 153.0
4 238.0 140.0
5 245.0 129.0
6 245.0 115.0
7 245.0 105.0
8 253.0 115.0
9 259.0 124.0
10 224.0 182.0
11 228.0 185.0
12 233.0 188.0
13 238.0 183.0
14 238.0 189.0
15 241.0 192.0
16 248.0 186.0
17 255.0 179.0
18 259.0 172.0
19 262.0 165.0
20 267.0 165.0
21 234.0 127.0
22 225.0 123.0
23 228.0 133.0
24 251.0 144.0
25 268.0 128.0
26 278.0 133.0
27 289.0 140.0
28 301.0 151.0
29 307.0 159.0
30 315.0 171.0
31 324.0 180.0
32 335.0 193.0
33 352.0 196.0
34 368.0 198.0
35 383.0 198.0
36 403.0 200.0
37 419.0 201.0
38 434.0 201.0
39 449.0 197.0
40 463.0 203.0
41 264.0 178.0
42 271.0 190.0
43 281.0 200.0
44 291.0 207.0
45 472.0 214.0
46 479.0 231.0
47 477.0 248.0
48 480.0 208.0
49 487.0 218.0
50 497.0 231.0
51 503.0 245.0
52 502.0 258.0
53 472.0 201.0
54 492.0 236.0
55 496.0 258.0
56 473.0 261.0
57 471.0 274.0
58 471.0 288.0
59 300.0 216.0
60 303.0 226.0
61 303.0 240.0
62 301.0 255.0
63 304.0 269.0
64 302.0 285.0
65 304.0 298.0
66 315.0 300.0
67 319.0 288.0
68 319.0 272.0
69 319.0 247.0
70 320.0 257.0
71 330.0 248.0
72 351.0 253.0
73 375.0 254.0
74 365.0 253.0
75 385.0 256.0
76 398.0 253.0
77 412.0 253.0
78 333.0 257.0
79 334.0 270.0
80 335.0 284.0
81 332.0 295.0
82 338.0 250.0
83 348.0 263.0
84 346.0 277.0
85 346.0 289.0
86 340.0 301.0
87 347.0 301.0
88 349.0 294.0
89 332.0 299.0
90 424.0 254.0
91 434.0 253.0
92 435.0 263.0
93 435.0 275.0
94 434.0 287.0
95 433.0 299.0
96 432.0 307.0
97 445.0 309.0
98 448.0 295.0
99 449.0 284.0
100 450.0 273.0
101 451.0 259.0
102 460.0 249.0
103 470.0 302.0
104 468.0 312.0
105 457.0 310.0
106 458.0 296.0
107 458.0 281.0
108 457.0 266.0
109 458.0 258.0
110 284.0 123.0
111 296.0 132.0
112 305.0 144.0
113 315.0 151.0
114 323.0 162.0
115 332.0 168.0
116 337.0 176.0
117 332.0 181.0
118 331.0 184.0
119 280.0 128.0
120 229.0 173.0
121 243.0 175.0
122 744.0 196.0
123 743.0 208.0
124 751.0 204.0
125 753.0 210.0
126 763.0 211.0
127 770.0 211.0
128 775.0 205.0
129 777.0 196.0
130 783.0 202.0
131 784.0 211.0
132 742.0 219.0
133 741.0 231.0
134 746.0 241.0
135 750.0 253.0
136 747.0 266.0
137 742.0 280.0
138 740.0 295.0
139 740.0 309.0
140 747.0 319.0
141 762.0 325.0
142 774.0 326.0
143 784.0 221.0
144 783.0 234.0
145 778.0 246.0
146 784.0 256.0
147 791.0 266.0
148 794.0 277.0
149 795.0 289.0
150 792.0 300.0
151 787.0 313.0
152 783.0 322.0
153 764.0 331.0
154 760.0 337.0
155 752.0 343.0
156 748.0 350.0
157 752.0 356.0
158 751.0 364.0
159 757.0 351.0
160 762.0 341.0
161 747.0 361.0
162 746.0 367.0
163 891.0 14.0
164 878.0 20.0
165 874.0 32.0
166 871.0 46.0
167 875.0 59.0
168 885.0 70.0
169 895.0 74.0
170 906.0 74.0
171 897.0 64.0
172 891.0 51.0
173 890.0 37.0
174 895.0 27.0
175 902.0 15.0
176 738.0 317.0
177 724.0 320.0
178 703.0 320.0
179 683.0 319.0
180 665.0 320.0
181 645.0 321.0
182 793.0 319.0
183 810.0 317.0
184 827.0 315.0
185 845.0 315.0
186 864.0 314.0
187 879.0 311.0
188 897.0 312.0
189 635.0 331.0
190 627.0 346.0
191 619.0 360.0
192 611.0 374.0
193 906.0 321.0
194 913.0 332.0
195 924.0 346.0
196 933.0 363.0
197 939.0 373.0
198 601.0 390.0
199 600.0 405.0
200 944.0 383.0
201 943.0 396.0
202 945.0 410.0
203 155.0 300.0
204 182.0 301.0
205 207.0 307.0
206 231.0 308.0
207 250.0 305.0
208 272.0 303.0
209 289.0 300.0
210 357.0 302.0
211 371.0 303.0
212 392.0 306.0
213 411.0 307.0
214 436.0 309.0
215 476.0 313.0
216 494.0 313.0
217 510.0 311.0
218 528.0 312.0
219 552.0 315.0
220 486.0 290.0
221 482.0 299.0
222 488.0 299.0
223 495.0 299.0
224 491.0 292.0
225 486.0 305.0
226 492.0 305.0
227 500.0 304.0
228 500.0 294.0
229 480.0 306.0
EOF